1659540
61,24,48,2,16,59,28,50,44,14,10,18,57,33,52,22,31,43,46,34,55,26,66,11,64,67,7,38,21,3,63,36,53,37,62,39,51,35,68,8,15,58,9,17,27,45,65,20,4,47,13,54,19,49,23,60,6,41,30,25,29,5,40,56,32,1,12,42